1680
6 86 98 10 52 33 90 42 11 69 4 93 34 54 81 73 95 76 2 68 78 83 61 21 1 59 70 56 16 67 75 99 24 18 5 45 84 87 88 60 37 65 7 49 26 28 15 27 57 71 64 66 23 22 13 35 58 17 94 44 9 91 82 25 29 79 38 43 3 12 41 46 14 96 51 39 31 8 53 92 32 40 74 48 36 62 50 30 85 63 89 72 80 97 77 19 55 47 20 
